# Objective value = 1.9322014613811211e+03
x[0] 1
x[1] 1
x[2] 1
x[3] 0
x[4] 0
x[5] 0
x[6] 0
x[7] 1
x[8] 0
x[9] 0
x[10] 0
x[11] 1
x[12] 1
x[13] 0
x[14] 1
x[15] 0
x[16] 1
x[17] 1
x[18] 1
x[19] 1
x[20] 0
x[21] 1
x[22] 0
x[23] 0
x[24] 0
x[25] 1
x[26] 1
x[27] 0
x[28] 1
x[29] 1
x[30] 1
x[31] 1
x[32] 1
x[33] 1
x[34] 0
x[35] 1
x[36] 0
x[37] 1
x[38] 0
x[39] 1
x[40] 0
x[41] 1
x[42] 0
x[43] 1
x[44] 1
x[45] 0
x[46] 1
x[47] 1
x[48] 0
x[49] 1
x[50] 1
x[51] 1
x[52] 0
x[53] 0
x[54] 1
x[55] 0
x[56] 1
x[57] 0
x[58] 0
x[59] 1
x[60] 0
x[61] 1
x[62] 1
x[63] 1
x[64] 1
x[65] 0
x[66] 1
x[67] 0
x[68] 1
x[69] 0
x[70] 1
x[71] 1
x[72] 0
x[73] 0
x[74] 0
x[75] 1
x[76] 1
x[77] 0
x[78] 0
x[79] 1
x[80] 0
x[81] 1
x[82] 0
x[83] 1
x[84] 0
x[85] 0
x[86] 1
x[87] 1
x[88] 0
x[89] 0
x[90] 1
x[91] 0
x[92] 0
x[93] 1
x[94] 0
x[95] 0
x[96] 1
x[97] 1
x[98] 1
x[99] 0
x[100] 1
x[101] 1
x[102] 0
x[103] 1
x[104] 0
x[105] 0
x[106] 0
x[107] 0
x[108] 1
x[109] 1
x[110] 0
x[111] 1
x[112] 1
x[113] 1
x[114] 0
x[115] 1
x[116] 0
x[117] 1
x[118] 0
x[119] 1
x[120] 1
x[121] 1
x[122] 1
x[123] 0
x[124] 1
x[125] 0
x[126] 0
x[127] 1
x[128] 0
x[129] 1
x[130] 1
x[131] 0
x[132] 0
x[133] 1
x[134] 1
x[135] 0
x[136] 0
x[137] 1
x[138] 1
x[139] 1
x[140] 0
x[141] 1
x[142] 0
x[143] 0
x[144] 0
x[145] 1
x[146] 1
x[147] 1
x[148] 1
x[149] 0
x[150] 0
x[151] 0
x[152] 1
x[153] 0
x[154] 1
x[155] 0
x[156] 1
x[157] 0
x[158] 1
x[159] 1
x[160] 0
x[161] 0
x[162] 0
x[163] 1
x[164] 0
x[165] 0
x[166] 0
x[167] 0
x[168] 0
x[169] 0
x[170] 1
x[171] 0
x[172] 1
x[173] 0
x[174] 0
x[175] 0
x[176] 1
x[177] 1
x[178] 0
x[179] 1
x[180] 1
x[181] 1
x[182] 1
x[183] 0
x[184] 1
x[185] 1
x[186] 0
x[187] 1
x[188] 0
x[189] 0
x[190] 0
x[191] 1
x[192] 1
x[193] 0
x[194] 1
x[195] 0
x[196] 1
x[197] 0
x[198] 0
x[199] 1
x[200] 0
x[201] 1
x[202] 0
x[203] 0
x[204] 0
x[205] 1
x[206] 0
x[207] 1
x[208] 0
x[209] 1
x[210] 0
x[211] 0
x[212] 1
x[213] 1
x[214] 0
x[215] 0
x[216] 1
x[217] 0
x[218] 0
x[219] 1
x[220] 1
x[221] 0
x[222] 0
x[223] 0
x[224] 1
x[225] 1
x[226] 0
x[227] 0
x[228] 0
x[229] 1
x[230] 1
x[231] 1
x[232] 0
x[233] 0
x[234] 1
x[235] 1
x[236] 1
x[237] 1
x[238] 1
x[239] 1
x[240] 1
x[241] 1
x[242] 1
x[243] 1
x[244] 0
x[245] 1
x[246] 1
x[247] 1
x[248] 1
x[249] 1
x[250] 1
x[251] 0
x[252] 1
x[253] 0
x[254] 1
x[255] 0
x[256] 1
x[257] 1
x[258] 0
x[259] 1
x[260] 0
x[261] 1
x[262] 1
x[263] 0
x[264] 0
x[265] 0
x[266] 0
x[267] 1
x[268] 1
x[269] 1
x[270] 1
x[271] 0
x[272] 0
x[273] 1
x[274] 1
x[275] 0
x[276] 0
x[277] 1
x[278] 1
x[279] 0
x[280] 1
x[281] 1
x[282] 1
x[283] 0
x[284] 1
x[285] 0
x[286] 1
x[287] 1
x[288] 0
x[289] 1
x[290] 1
x[291] 0
x[292] 0
x[293] 0
x[294] 1
x[295] 0
x[296] 1
x[297] 1
x[298] 1
x[299] 1
x[300] 1
x[301] 0
x[302] 0
x[303] 1
x[304] 1
x[305] 1
x[306] 0
x[307] 1
x[308] 1
x[309] 0
x[310] 1
x[311] 1
x[312] 1
x[313] 0
x[314] 1
x[315] 1
x[316] 1
x[317] 0
x[318] 0
x[319] 0
x[320] 1
x[321] 1
x[322] 1
x[323] 0
x[324] 1
x[325] 0
x[326] 1
x[327] 0
x[328] 0
x[329] 0
x[330] 1
x[331] 1
x[332] 0
x[333] 0
x[334] 1
x[335] 1
x[336] 1
x[337] 0
x[338] 1
x[339] 0
x[340] 1
x[341] 0
x[342] 1
x[343] 1
x[344] 1
x[345] 1
x[346] 1
x[347] 1
x[348] 0
x[349] 0
x[350] 1
x[351] 0
x[352] 1
x[353] 1
x[354] 1
x[355] 1
x[356] 0
x[357] 1
x[358] 0
x[359] 1
x[360] 0
x[361] 1
x[362] 0
x[363] 1
x[364] 0
x[365] 1
x[366] 0
x[367] 1
x[368] 1
x[369] 0
x[370] 0
x[371] 0
x[372] 0
x[373] 1
x[374] 1
x[375] 0
x[376] 1
x[377] 0
x[378] 1
x[379] 0
x[380] 0
x[381] 1
x[382] 1
x[383] 0
x[384] 1
x[385] 1
x[386] 0
x[387] 0
x[388] 0
x[389] 0
x[390] 1
x[391] 1
x[392] 1
x[393] 1
x[394] 1
x[395] 0
x[396] 0
x[397] 0
x[398] 1
x[399] 0
x[400] 1
x[401] 1
x[402] 1
x[403] 1
x[404] 1
x[405] 0
x[406] 1
x[407] 0
x[408] 1
x[409] 1
x[410] 0
x[411] 0
x[412] 0
x[413] 1
x[414] 1
x[415] 1
x[416] 0
x[417] 0
x[418] 1
x[419] 1
x[420] 1
x[421] 0
x[422] 1
x[423] 0
x[424] 1
x[425] 0
x[426] 0
x[427] 0
x[428] 0
x[429] 1
x[430] 1
x[431] 1
x[432] 0
x[433] 1
x[434] 0
x[435] 0
x[436] 0
x[437] 0
x[438] 1
x[439] 0
x[440] 1
x[441] 0
x[442] 1
x[443] 0
x[444] 1
x[445] 1
x[446] 1
x[447] 1
x[448] 0
x[449] 0
x[450] 0
x[451] 0
x[452] 0
x[453] 1
x[454] 0
x[455] 1
x[456] 1
x[457] 1
x[458] 0
x[459] 0
x[460] 0
x[461] 0
x[462] 1
x[463] 0
x[464] 0
x[465] 1
x[466] 0
x[467] 1
x[468] 1
x[469] 0
x[470] 0
x[471] 0
x[472] 1
x[473] 0
x[474] 1
x[475] 1
x[476] 1
x[477] 1
x[478] 1
x[479] 0
x[480] 0
x[481] 1
x[482] 1
x[483] 0
x[484] 0
x[485] 1
x[486] 0
x[487] 1
x[488] 1
x[489] 0
x[490] 1
x[491] 0
x[492] 1
x[493] 1
x[494] 1
x[495] 1
x[496] 1
x[497] 1
x[498] 1
x[499] 0
x[500] 1
x[501] 0
x[502] 1
x[503] 1
x[504] 1
x[505] 0
x[506] 0
x[507] 1
x[508] 1
x[509] 0
x[510] 0
x[511] 1
x[512] 0
x[513] 1
x[514] 1
x[515] 0
x[516] 1
x[517] 0
x[518] 1
x[519] 1
x[520] 1
x[521] 0
x[522] 0
x[523] 1
x[524] 1
x[525] 1
x[526] 1
x[527] 1
x[528] 1
x[529] 1
x[530] 0
x[531] 1
x[532] 0
x[533] 0
x[534] 1
x[535] 1
x[536] 0
x[537] 0
x[538] 0
x[539] 0
x[540] 1
x[541] 0
x[542] 0
x[543] 0
x[544] 0
x[545] 1
x[546] 1
x[547] 1
x[548] 1
x[549] 1
x[550] 1
x[551] 0
x[552] 0
x[553] 1
x[554] 0
x[555] 0
x[556] 0
x[557] 1
x[558] 1
x[559] 1
x[560] 0
x[561] 1
x[562] 1
x[563] 1
x[564] 0
x[565] 0
x[566] 1
x[567] 1
x[568] 1
x[569] 0
x[570] 1
x[571] 0
x[572] 1
x[573] 0
x[574] 0
x[575] 1
x[576] 0
x[577] 0
x[578] 1
x[579] 1
x[580] 0
x[581] 0
x[582] 1
x[583] 0
x[584] 1
x[585] 1
x[586] 0
x[587] 1
x[588] 1
x[589] 0
x[590] 0
x[591] 1
x[592] 1
x[593] 0
x[594] 0
x[595] 0
x[596] 1
x[597] 0
x[598] 0
x[599] 1
x[600] 1
x[601] 1
x[602] 0
x[603] 1
x[604] 1
x[605] 0
x[606] 1
x[607] 0
x[608] 1
x[609] 1
x[610] 0
x[611] 1
x[612] 0
x[613] 1
x[614] 1
x[615] 0
x[616] 1
x[617] 1
x[618] 1
x[619] 1
x[620] 1
x[621] 1
x[622] 0
x[623] 1
x[624] 0
x[625] 1
x[626] 1
x[627] 1
x[628] 0
x[629] 1
x[630] 1
x[631] 1
x[632] 1
x[633] 1
x[634] 0
x[635] 1
x[636] 0
x[637] 0
x[638] 1
x[639] 1
x[640] 1
x[641] 1
x[642] 1
x[643] 1
x[644] 1
x[645] 1
x[646] 1
x[647] 1
x[648] 1
x[649] 0
x[650] 1
x[651] 0
x[652] 0
x[653] 0
x[654] 1
x[655] 0
x[656] 0
x[657] 1
x[658] 1
x[659] 1
x[660] 1
x[661] 1
x[662] 0
x[663] 1
x[664] 1
x[665] 0
x[666] 1
x[667] 0
x[668] 1
x[669] 1
x[670] 0
x[671] 0
x[672] 0
x[673] 0
x[674] 1
x[675] 1
x[676] 1
x[677] 1
x[678] 0
x[679] 1
x[680] 1
x[681] 0
x[682] 1
x[683] 0
x[684] 1
x[685] 0
x[686] 0
x[687] 1
x[688] 0
x[689] 1
x[690] 0
x[691] 1
x[692] 0
x[693] 1
x[694] 1
x[695] 1
x[696] 1
x[697] 0
x[698] 1
x[699] 0
x[700] 1
x[701] 0
x[702] 1
x[703] 1
x[704] 1
x[705] 0
x[706] 1
x[707] 0
x[708] 1
x[709] 1
x[710] 0
x[711] 0
x[712] 1
x[713] 0
x[714] 1
x[715] 0
x[716] 0
x[717] 0
x[718] 0
x[719] 1
x[720] 1
x[721] 1
x[722] 1
x[723] 1
x[724] 1
x[725] 0
x[726] 0
x[727] 1
x[728] 1
x[729] 1
x[730] 1
x[731] 1
x[732] 0
x[733] 1
x[734] 1
x[735] 0
x[736] 1
x[737] 1
x[738] 1
x[739] 0
x[740] 0
x[741] 1
x[742] 0
x[743] 0
x[744] 0
x[745] 1
x[746] 1
x[747] 1
x[748] 0
x[749] 1
x[750] 0
x[751] 1
x[752] 1
x[753] 1
x[754] 0
x[755] 0
x[756] 1
x[757] 1
x[758] 1
x[759] 1
x[760] 1
x[761] 1
x[762] 1
x[763] 1
x[764] 0
x[765] 0
x[766] 1
x[767] 1
x[768] 0
x[769] 1
x[770] 0
x[771] 1
x[772] 0
x[773] 0
x[774] 1
x[775] 0
x[776] 0
x[777] 1
x[778] 1
x[779] 1
x[780] 0
x[781] 0
x[782] 1
x[783] 0
x[784] 0
x[785] 0
x[786] 0
x[787] 0
x[788] 1
x[789] 1
x[790] 0
x[791] 1
x[792] 1
x[793] 1
x[794] 0
x[795] 1
x[796] 1
x[797] 0
x[798] 0
x[799] 1
x[800] 1
x[801] 0
x[802] 0
x[803] 1
x[804] 0
x[805] 0
x[806] 0
x[807] 1
x[808] 1
x[809] 1
x[810] 1
x[811] 1
x[812] 1
x[813] 1
x[814] 0
x[815] 0
x[816] 0
x[817] 1
x[818] 1
x[819] 0
x[820] 1
x[821] 0
x[822] 0
x[823] 1
x[824] 1
x[825] 1
x[826] 1
x[827] 1
x[828] 0
x[829] 1
x[830] 0
x[831] 0
x[832] 0
x[833] 1
x[834] 1
x[835] 1
x[836] 1
x[837] 1
x[838] 1
x[839] 1
x[840] 0
x[841] 0
x[842] 0
x[843] 0
x[844] 1
x[845] 1
x[846] 1
x[847] 1
x[848] 1
x[849] 1
x[850] 1
x[851] 0
x[852] 0
x[853] 0
x[854] 1
x[855] 0
x[856] 1
x[857] 0
x[858] 1
x[859] 0
x[860] 0
x[861] 1
x[862] 1
x[863] 1
x[864] 1
x[865] 1
x[866] 0
x[867] 1
x[868] 0
x[869] 1
x[870] 1
x[871] 1
x[872] 1
x[873] 1
x[874] 0
x[875] 0
x[876] 0
x[877] 0
x[878] 1
x[879] 1
x[880] 0
x[881] 1
x[882] 1
x[883] 1
x[884] 1
x[885] 1
x[886] 0
x[887] 0
x[888] 1
x[889] 0
x[890] 1
x[891] 0
x[892] 0
x[893] 1
x[894] 1
x[895] 0
x[896] 0
x[897] 1
x[898] 1
x[899] 0
x[900] 1
x[901] 1
x[902] 1
x[903] 0
x[904] 1
x[905] 0
x[906] 0
x[907] 1
x[908] 0
x[909] 1
x[910] 1
x[911] 0
x[912] 0
x[913] 1
x[914] 1
x[915] 1
x[916] 1
x[917] 0
x[918] 0
x[919] 0
x[920] 1
x[921] 1
x[922] 0
x[923] 1
x[924] 0
x[925] 0
x[926] 0
x[927] 1
x[928] 1
x[929] 0
x[930] 0
x[931] 1
x[932] 1
x[933] 1
x[934] 1
x[935] 1
x[936] 1
x[937] 0
x[938] 0
x[939] 0
x[940] 0
x[941] 0
x[942] 0
x[943] 1
x[944] 1
x[945] 0
x[946] 0
x[947] 1
x[948] 1
x[949] 1
x[950] 1
x[951] 0
x[952] 1
x[953] 1
x[954] 1
x[955] 1
x[956] 1
x[957] 1
x[958] 0
x[959] 1
x[960] 0
x[961] 1
x[962] 1
x[963] 1
x[964] 0
x[965] 1
x[966] 1
x[967] 0
x[968] 1
x[969] 0
x[970] 0
x[971] 1
x[972] 0
x[973] 1
x[974] 1
x[975] 0
x[976] 0
x[977] 0
x[978] 0
x[979] 0
x[980] 1
x[981] 0
x[982] 0
x[983] 1
x[984] 1
x[985] 0
x[986] 1
x[987] 1
x[988] 0
x[989] 1
x[990] 1
x[991] 0
x[992] 1
x[993] 0
x[994] 1
x[995] 0
x[996] 0
x[997] 0
x[998] 1
x[999] 1
